Route #1: 104 165 144 176 98 73 67 114
Route #2: 130 88 78 102 3 93 109 68
Route #3: 30 79 96 171 159 80 58 21
Route #4: 161 107 20 158 36 9 14 137
Route #5: 11 19 49 128 60 42 157 52
Route #6: 152 47 143 142
Route #7: 95 163 90 26 29 122 27 51
Route #8: 132 44 140 63 85 89 2 149
Route #9: 84 116 92 131 169 61 65 32
Route #10: 106 160 154 38 129 136 77 13
Route #11: 145 180 59 139 120 101 112 148
Route #12: 133 173 119 28 69 100 56 99
Route #13: 72 25 66 81 1 16 141 172
Route #14: 134 83 103 166 74 46 82 153
Route #15: 39 125 167 147 87 146 94 50
Route #16: 22 41 168 162 175 110 57 31
Route #17: 91 7 151 33 4 53 35 117
Route #18: 45 170 155 123 174 48 6 126
Route #19: 113 34 97 164 37 15 127 54
Route #20: 75 118 40 150 177 156 111 43
Route #21: 23 62 86 64 10 178 115 138
Route #22: 55 71 135 105 5 179 24 17
Route #23: 124 8 18 76 70 121 12 108
